
  12    4
  10   10   10   10

   0   0   0   0   0   4 2 3 4 7 
   5  10  10  10  10   3 11 10 5 
  10  10  10  10  10   2 10 5 
   7  10  10  10  10   2 9 6 
   5  10  10  10  10   1 8 
   3  10  10  10  10   1 8 
  10  10  10  10  10   1 9 
   8  10  10  10  10   1 12
   1  10  10  10  10   1 12
   8  10  10  10  10   1 12
   4  10  10  10  10   1 12
   0   0   0   0   0   0 
